peakDumbCharging = 25900; 
Machine = anon_enum(16); 
machineSpeed = [3700,3700,3700,3700,3700,3700,3700,3700,3700,3700,3700,3700,3700,3700,3700,3700]; 
machineLoad = [3700,3700,3700,3700,3700,3700,3700,3700,3700,3700,3700,3700,3700,3700,3700,3700]; 
Car = anon_enum(30); 
demandCar = [8080,15480,2960,6240,880,800,11560,3800,880,5240,18000,5880,3600,1800,2080,5400,1720,5640,3760,28000,5920,12680,19280,19600,9080,11040,7040,4680,5520,18360]; 
arrivalCar = [68,68,68,66,66,65,64,64,64,62,61,61,58,57,56,56,56,55,55,55,53,50,50,48,48,47,47,40,40,38]; 
departureCar = [73,74,71,69,68,67,69,67,65,65,70,64,61,61,59,60,60,58,59,66,55,55,57,56,53,51,52,44,44,45]; 
